50, 2476426
100014, 272
100046, 489
100008, 82
100038, 339
100089, 73
100061, 12
100002, 284
100086, 118
100066, 312
100052, 744
100029, 36
100030, 625
100018, 136
100062, 796
100005, 737
100095, 212
100010, 849
100063, 718
100058, 75
100036, 409
100028, 701
100044, 923
100033, 173
100098, 252
100065, 776
100052, 963
100066, 94
100049, 90
100015, 752
100002, 317
100097, 387
100085, 877
100009, 746
100061, 661
100079, 868
100090, 733
100006, 811
100013, 644
100039, 594
100060, 60
100008, 910
100070, 912
100076, 352
100045, 627
100085, 17
100039, 500
100084, 624
100038, 294
100040, 415
100038, 836
